Problem:    conciertos
Rows:       14
Columns:    22 (21 integer, 21 binary)
Non-zeros:  83
Status:     INTEGER OPTIMAL
Objective:  Z = 40 (MAXimum)

   No.   Row name        Activity     Lower bound   Upper bound
------ ------------    ------------- ------------- -------------
     1 Z                          40                             
     2 asistirAEoPJ                2             1               
     3 noAsisteAmbosRSyEC
                                   1                           1 
     4 siAsistirGR                 1             1               
     5 noAsistirJB                 0            -0             = 
     6 maximo1EntraConcierto[1]
                                   1                           1 
     7 maximo1EntraConcierto[2]
                                   1                           1 
     8 maximo1EntraConcierto[3]
                                   0                           1 
     9 maximo1EntraConcierto[4]
                                   1                           1 
    10 maximo1EntraConcierto[5]
                                   1                           1 
    11 maximo1EntraConcierto[6]
                                   0                           1 
    12 maximo1EntraConcierto[7]
                                   1                           1 
    13 definirCostoTotal
                                   0            -0             = 
    14 presupuestoMaximo
                              179000                      200000 

   No. Column name       Activity     Lower bound   Upper bound
------ ------------    ------------- ------------- -------------
     1 X[1,1]       *              0             0             1 
     2 X[1,2]       *              0             0             1 
     3 X[1,3]       *              1             0             1 
     4 X[2,1]       *              0             0             1 
     5 X[2,2]       *              0             0             1 
     6 X[2,3]       *              1             0             1 
     7 X[3,1]       *              0             0             1 
     8 X[3,2]       *              0             0             1 
     9 X[3,3]       *              0             0             1 
    10 X[4,1]       *              0             0             1 
    11 X[4,2]       *              0             0             1 
    12 X[4,3]       *              1             0             1 
    13 X[5,1]       *              0             0             1 
    14 X[5,2]       *              1             0             1 
    15 X[5,3]       *              0             0             1 
    16 X[6,1]       *              0             0             1 
    17 X[6,2]       *              0             0             1 
    18 X[6,3]       *              0             0             1 
    19 X[7,1]       *              1             0             1 
    20 X[7,2]       *              0             0             1 
    21 X[7,3]       *              0             0             1 
    22 Y                      179000             0               

Integer feasibility conditions:

KKT.PE: max.abs.err = 0.00e+00 on row 0
        max.rel.err = 0.00e+00 on row 0
        High quality

KKT.PB: max.abs.err = 0.00e+00 on row 0
        max.rel.err = 0.00e+00 on row 0
        High quality

End of output
